c Generated map
c Size: 9 * 9, weights in range: 1 to 10, walls: True, with ratio 0.05
c dim 5 of 7
c
p sp 81 129
c graph contains 81 nodes and 129 arcs
c
a 1 10 7
a 10 1 7
a 1 2 9
a 2 1 9
a 2 11 10
a 11 2 10
a 2 3 2
a 3 2 2
a 3 12 10
a 12 3 10
a 3 4 1
a 4 3 1
a 4 13 10
a 13 4 10
a 4 5 1
a 5 4 1
a 5 6 3
a 6 5 3
a 6 15 8
a 15 6 8
a 6 7 10
a 7 6 10
a 7 16 10
a 16 7 10
a 7 8 2
a 8 7 2
a 8 17 3
a 17 8 3
a 8 9 2
a 9 8 2
a 9 18 1
a 18 9 1
a 10 19 1
a 19 10 1
a 10 11 4
a 11 10 4
a 11 20 10
a 20 11 10
a 11 12 6
a 12 11 6
a 12 21 1
a 21 12 1
a 12 13 1
a 13 12 1
a 13 22 5
a 22 13 5
a 15 24 1
a 24 15 1
a 15 16 4
a 16 15 4
a 16 25 5
a 25 16 5
a 16 17 10
a 17 16 10
a 17 26 7
a 26 17 7
a 17 18 6
a 18 17 6
a 18 27 6
a 27 18 6
a 19 28 1
a 28 19 1
a 19 20 4
a 20 19 4
a 20 29 9
a 29 20 9
a 20 21 10
a 21 20 10
a 21 30 8
a 30 21 8
a 21 22 2
a 22 21 2
a 22 31 7
a 31 22 7
a 22 23 6
a 23 22 6
a 23 24 5
a 24 23 5
a 24 33 9
a 33 24 9
a 24 25 10
a 25 24 10
a 25 34 3
a 34 25 3
a 25 26 3
a 26 25 3
a 26 35 4
a 35 26 4
a 26 27 3
a 27 26 3
a 27 36 3
a 36 27 3
a 28 29 10
a 29 28 10
a 29 38 3
a 38 29 3
a 29 30 4
a 30 29 4
a 30 39 9
a 39 30 9
a 30 31 9
a 31 30 9
a 31 40 7
a 40 31 7
a 33 42 7
a 42 33 7
a 33 34 6
a 34 33 6
a 34 43 6
a 43 34 6
a 34 35 8
a 35 34 8
a 35 44 5
a 44 35 5
a 35 36 2
a 36 35 2
a 36 45 8
a 45 36 8
a 38 47 10
a 47 38 10
a 38 39 7
a 39 38 7
a 39 48 1
a 48 39 1
a 39 40 2
a 40 39 2
a 40 49 7
a 49 40 7
a 40 41 10
a 41 40 10
a 41 50 2
a 50 41 2
a 41 42 1
a 42 41 1
a 42 51 1
a 51 42 1
a 42 43 4
a 43 42 4
a 43 52 3
a 52 43 3
a 43 44 2
a 44 43 2
a 44 53 3
a 53 44 3
a 44 45 8
a 45 44 8
a 45 54 2
a 54 45 2
a 46 55 10
a 55 46 10
a 46 47 3
a 47 46 3
a 47 56 6
a 56 47 6
a 47 48 9
a 48 47 9
a 48 57 7
a 57 48 7
a 48 49 7
a 49 48 7
a 49 58 3
a 58 49 3
a 49 50 6
a 50 49 6
a 50 59 2
a 59 50 2
a 50 51 9
a 51 50 9
a 51 60 2
a 60 51 2
a 51 52 8
a 52 51 8
a 52 61 3
a 61 52 3
a 52 53 4
a 53 52 4
a 53 62 1
a 62 53 1
a 53 54 1
a 54 53 1
a 54 63 6
a 63 54 6
a 55 64 10
a 64 55 10
a 55 56 10
a 56 55 10
a 56 65 4
a 65 56 4
a 56 57 3
a 57 56 3
a 57 66 6
a 66 57 6
a 57 58 1
a 58 57 1
a 58 59 5
a 59 58 5
a 59 68 10
a 68 59 10
a 59 60 2
a 60 59 2
a 60 69 9
a 69 60 9
a 60 61 8
a 61 60 8
a 61 70 1
a 70 61 1
a 61 62 6
a 62 61 6
a 62 71 3
a 71 62 3
a 62 63 2
a 63 62 2
a 63 72 5
a 72 63 5
a 64 73 7
a 73 64 7
a 64 65 10
a 65 64 10
a 65 74 1
a 74 65 1
a 65 66 6
a 66 65 6
a 66 75 9
a 75 66 9
a 68 77 9
a 77 68 9
a 68 69 8
a 69 68 8
a 69 78 4
a 78 69 4
a 69 70 7
a 70 69 7
a 70 79 7
a 79 70 7
a 70 71 4
a 71 70 4
a 71 80 5
a 80 71 5
a 71 72 2
a 72 71 2
a 72 81 1
a 81 72 1
a 73 74 10
a 74 73 10
a 74 75 3
a 75 74 3
a 75 76 1
a 76 75 1
a 76 77 1
a 77 76 1
a 77 78 8
a 78 77 8
a 78 79 5
a 79 78 5
a 79 80 10
a 80 79 10
a 80 81 5
a 81 80 5
